Set parameter TokenServer to value "hpc-licenses.hpcc.usc.edu"
Set parameter TimeLimit to value 3600
Gurobi Optimizer version 9.5.1 build v9.5.1rc2 (linux64)
Thread count: 20 physical cores, 20 logical processors, using up to 20 threads
Optimize a model with 6007 rows, 4529 columns and 24534 nonzeros
Model fingerprint: 0x5ef6804f
Variable types: 4506 continuous, 23 integer (23 binary)
Coefficient statistics:
  Matrix range     [1e+00, 1e+00]
  Objective range  [2e-04, 1e+00]
  Bounds range     [1e+00, 1e+00]
  RHS range        [1e+00, 6e+01]
Presolve removed 1520 rows and 1515 columns
Presolve time: 0.06s
Presolved: 4487 rows, 3014 columns, 21975 nonzeros
Variable types: 2994 continuous, 20 integer (20 binary)
Found heuristic solution: objective 221.1621468

Root relaxation: objective 2.278026e+02, 3301 iterations, 0.16 seconds (0.20 work units)

    Nodes    |    Current Node    |     Objective Bounds      |     Work
 Expl Unexpl |  Obj  Depth IntInf | Incumbent    BestBd   Gap | It/Node Time

     0     0  227.80260    0    2  221.16215  227.80260  3.00%     -    0s
     0     0  227.78305    0    5  221.16215  227.78305  2.99%     -    0s
H    0     0                     227.4357553  227.78305  0.15%     -    0s
     0     0  227.76020    0    5  227.43576  227.76020  0.14%     -    0s
     0     0  227.76020    0    2  227.43576  227.76020  0.14%     -    1s
     0     0  227.76020    0    4  227.43576  227.76020  0.14%     -    1s
     0     0  227.75744    0    5  227.43576  227.75744  0.14%     -    2s

Cutting planes:
  Gomory: 1
  Implied bound: 53
  MIR: 22
  Flow cover: 429
  RLT: 4
  Relax-and-lift: 174

Explored 1 nodes (5605 simplex iterations) in 2.34 seconds (0.95 work units)
Thread count was 20 (of 20 available processors)

Solution count 2: 227.436 221.162 

Optimal solution found (tolerance 1.00e-04)
Best objective 2.274357552528e+02, best bound 2.274357552528e+02, gap 0.0000%



#########node  1
V1.9
#########node  2
0.0,1.0
#########node  3
0.9886363636363636,0.011363636363636376


Total Solving Time 2.773160696029663
obj value 227.43575525280625
Policy Regret train (Sum) 10.475852471410601
Best Treatment Found train (%) 51.800000000000004
treatment classification acc train (%) 58.8
Policy Regret test (Sum) 171.07608036179815
Best Treatment Found test (%) 53.010000000000005
treatment classification acc test (%) 57.65
